problems/csplib-prob015/SchursLemma-models/noch/O2/lingeling/model_1_2-3-6-solution000001.eprime-solution
language ESSENCE' 1.0

letting boxes_PartitionAsSet_ExplicitR6_ExplicitVarSizeWithDummy be
        [[1, 7, 7, 7, 7, 7; int(1..6)], [2, 4, 5, 7, 7, 7; int(1..6)], [3, 6, 7, 7, 7, 7; int(1..6)]; int(1..3)]
